
Gurobi 6.5.2 (linux64) logging started Wed Mar 15 12:48:01 2017


Gurobi 6.5.2 (linux64) logging started Wed Mar 15 12:48:01 2017

Optimize a model with 101 rows, 908 columns and 1817 nonzeros
Coefficient statistics:
  Matrix range    [1e+00, 2e+00]
  Objective range [1e+00, 1e+02]
  Bounds range    [1e+00, 1e+00]
  RHS range       [1e+00, 1e+00]
Found heuristic solution: objective 3053
Presolve removed 51 rows and 50 columns
Presolve time: 0.00s
Presolved: 50 rows, 858 columns, 1716 nonzeros
Variable types: 0 continuous, 858 integer (858 binary)

Root relaxation: objective 6.640000e+02, 69 iterations, 0.00 seconds

    Nodes    |    Current Node    |     Objective Bounds      |     Work
 Expl Unexpl |  Obj  Depth IntInf | Incumbent    BestBd   Gap | It/Node Time

     0     0  664.00000    0    6 3053.00000  664.00000  78.3%     -    0s
     0     0  666.00000    0   11 3053.00000  666.00000  78.2%     -    0s
     0     0  666.00000    0   11 3053.00000  666.00000  78.2%     -    0s
     0     0  666.00000    0   11 3053.00000  666.00000  78.2%     -    0s
     0     2  666.00000    0   11 3053.00000  666.00000  78.2%     -    0s
H  546   348                     778.0000000  669.00000  14.0%   3.9    0s
* 1049   345              16     695.0000000  670.50000  3.53%   4.0    0s
* 1116   289              11     690.0000000  670.50000  2.83%   4.0    0s

Cutting planes:
  MIR: 1
  Zero half: 2
  Lazy constraints: 257

Explored 1525 nodes (6449 simplex iterations) in 0.30 seconds
Thread count was 8 (of 8 available processors)

Optimal solution found (tolerance 1.00e-04)
Best objective 6.900000000000e+02, best bound 6.900000000000e+02, gap 0.0%
